StudentsNr = 10;
InstructorsNr = 52;
DaysNr = 1;
SlotsPerDay = 15;
AvailabilitySlotsLenght = 5;
RoomNr = 1;
ProgrammNr = 1;
DegreeNr = 3;
RolesNr = 4;
CoursesNr = 9;
InstructorsProgramm = [{1}, {1}, {1}, {1}, {1}, {1}, {1}, {1}, {1}, {1}, {1}, {1}, {1}, {1}, {1}, {1}, {1}, {1}, {1}, {1}, {1}, {1}, {1}, {1}, {1}, {1}, {1}, {1}, {1}, {1}, {1}, {1}, {1}, {1}, {1}, {1}, {1}, {1}, {1}, {1}, {1}, {1}, {1}, {1}, {1}, {1}, {1}, {1}, {1}, {1}, {1}, {1}];
InstructorRolesPerProgramm = [|{3, 4, 6, 10, 19, 24, 25, 28, 29, 31, 32, 33, 36, 38, 42, 45, 51, 52}, {1, 2, 5, 6, 8, 9, 12, 15, 17, 21, 22, 28, 29, 32, 34, 35, 39, 41, 42, 43, 45, 47, 49, 50, 51}, {1, 3, 6, 9, 19, 22, 24, 25, 29, 30, 31, 33, 34, 35, 36, 37, 38, 39, 41, 42, 45, 46, 48, 49, 51, 52}, {3, 10, 12, 14, 15, 17, 19, 21, 22, 25, 27, 36, 37, 44, 46, 50, 52}|];
InstructorsAvailability = [|0, 1, 1, |1, 0, 1, |0, 1, 1, |0, 1, 1, |0, 1, 0, |1, 1, 0, |0, 1, 1, |1, 1, 1, |1, 1, 1, |0, 0, 0, |1, 1, 1, |1, 1, 1, |1, 1, 1, |1, 1, 1, |1, 0, 1, |0, 1, 1, |0, 1, 1, |0, 1, 1, |0, 1, 1, |1, 1, 1, |0, 0, 1, |1, 1, 1, |0, 0, 0, |0, 0, 1, |0, 1, 1, |1, 1, 1, |0, 1, 1, |0, 1, 0, |0, 0, 0, |1, 0, 1, |0, 0, 0, |0, 0, 0, |1, 1, 1, |1, 1, 1, |1, 0, 1, |0, 0, 0, |0, 1, 1, |0, 0, 1, |0, 1, 1, |1, 0, 0, |1, 1, 1, |1, 1, 1, |1, 0, 1, |0, 0, 1, |1, 1, 1, |1, 1, 1, |0, 1, 1, |0, 1, 0, |1, 1, 0, |1, 1, 1, |0, 0, 1, |1, 1, 1|];
StudentsProgramm = [1, 1, 1, 1, 1, 1, 1, 1, 1, 1];
StudentsDegree = [2, 3, 1, 2, 3, 1, 3, 1, 2, 2];
StudentsSupervisorId = [5, 4, 33, 42, 28, 36, 36, 37, 48, 25];
StudentsCourseIds = [{1}, {2, 3, 6, 8, 9}, {3, 5, 6, 7}, {9}, {1, 3, 5, 7, 8}, {2, 4, 6, 9}, {2, 3, 4, 7, 8}, {3, 5, 6, 8}, {6}, {8}];
StudentsAvailability = [|1, 0, 0, |1, 1, 1, |0, 0, 0, |0, 1, 1, |0, 0, 0, |0, 0, 0, |0, 1, 1, |0, 1, 1, |1, 1, 1, |1, 0, 1|];
TheoryticalMinCard = [0, 0, 0, 0, 0, 0, 0, 0, 0, 0];
CoursesInstructorIds = [{5, 6, 8, 14, 17, 21, 24, 26, 30, 33, 34, 35, 37, 39, 40, 47, 48, 51}, {1, 9, 11, 14, 18, 19, 21, 23, 25, 30, 33, 36, 40, 47, 52}, {1, 2, 5, 6, 7, 8, 11, 13, 14, 19, 23, 24, 25, 27, 29, 30, 32, 34, 35, 38, 39, 42, 44, 45, 46, 50, 51}, {1, 2, 4, 6, 8, 10, 11, 13, 14, 17, 18, 20, 22, 24, 26, 28, 30, 31, 32, 33, 34, 35, 37, 38, 39, 46, 49, 51, 52}, {3, 5, 10, 13, 14, 20, 23, 25, 27, 30, 33, 35, 38, 46, 49}, {18, 36}, {1, 2, 9, 13, 16, 17, 20, 22, 24, 26, 29, 30, 31, 32, 33, 34, 35, 37, 38, 43, 46, 47, 48, 49}, {1, 2, 3, 4, 8, 9, 10, 11, 13, 14, 16, 17, 18, 24, 25, 26, 27, 28, 31, 32, 37, 38, 39, 41, 44, 48, 49, 50, 52}, {2, 4, 9, 10, 19, 23, 28, 32, 36, 43, 52}];
RolesDemands = [13, 13, 19, 17];
RolesContinuity = [3, 1];
ExamLen = [2, 2, 2, 2, 2, 2, 2, 2, 2, 2];
LunchTsMinLen = 0;
LunchStarts = [7..11];
SupervisorAvailable = 5;
OptimalLunchLenght = [3, 1];
OptimalStartTs = [1, 1];
OptimalFinishTs = [1, 15];
MinimizeRooms = 400;
RolesSoftContinuity = [|1, 2, 3, 4|1, 3, 4, 4|];
SameDegreeInRoom = 0;
Mergeability = 1;
